
Gurobi 10.0.1 (win64) logging started Sun Oct  8 04:17:24 2023

Set parameter LogFile to value "./results//log/FMS_03_deadline_heurFalse.log"
Gurobi Optimizer version 10.0.1 build v10.0.1rc0 (win64)

CPU model: AMD Ryzen 7 3700X 8-Core Processor, instruction set [SSE2|AVX|AVX2]
Thread count: 8 physical cores, 16 logical processors, using up to 16 threads

Optimize a model with 97 rows, 62 columns and 340 nonzeros
Model fingerprint: 0x3d61f424
Model has 1 quadratic constraint
Variable types: 0 continuous, 62 integer (51 binary)
Coefficient statistics:
  Matrix range     [1e+00, 1e+07]
  QMatrix range    [1e+00, 1e+00]
  QLMatrix range   [1e+00, 4e+02]
  Objective range  [1e+00, 1e+00]
  Bounds range     [1e+00, 1e+00]
  RHS range        [1e+00, 3e+07]
Presolve removed 28 rows and 28 columns
Presolve time: 0.01s
Presolved: 75 rows, 38 columns, 295 nonzeros
Variable types: 0 continuous, 38 integer (23 binary)

Root relaxation: objective 0.000000e+00, 17 iterations, 0.00 seconds (0.00 work units)

    Nodes    |    Current Node    |     Objective Bounds      |     Work
 Expl Unexpl |  Obj  Depth IntInf | Incumbent    BestBd   Gap | It/Node Time

     0     0    0.00000    0    9          -    0.00000      -     -    0s
     0     0    0.00000    0    8          -    0.00000      -     -    0s
H    0     0                    1904.0000000    0.00000   100%     -    0s
H    0     0                    1693.0000000    0.00000   100%     -    0s
H    0     0                    1282.0000000    0.00000   100%     -    0s
     0     0    0.00000    0   14 1282.00000    0.00000   100%     -    0s
H    0     0                    1276.0000000    0.00000   100%     -    0s
     0     0  452.00000    0   11 1276.00000  452.00000  64.6%     -    0s
     0     0  574.00000    0   16 1276.00000  574.00000  55.0%     -    0s
H    0     0                    1274.0000000  574.00000  54.9%     -    0s
     0     0  756.00000    0   14 1274.00000  756.00000  40.7%     -    0s
H    0     0                    1180.0000000  898.00000  23.9%     -    0s
     0     0  904.00058    0   16 1180.00000  904.00058  23.4%     -    0s
     0     0  914.01767    0   15 1180.00000  914.01767  22.5%     -    0s
     0     0 1113.00000    0   15 1180.00000 1113.00000  5.68%     -    0s
     0     0 1152.00000    0   15 1180.00000 1152.00000  2.37%     -    0s
     0     2 1152.00000    0   13 1180.00000 1152.00000  2.37%     -    0s

Cutting planes:
  Learned: 6
  Gomory: 1
  Implied bound: 2
  MIR: 3
  Flow cover: 2
  RLT: 4

Explored 42 nodes (318 simplex iterations) in 0.14 seconds (0.01 work units)
Thread count was 16 (of 16 available processors)

Solution count 6: 1180 1274 1276 ... 1904

Optimal solution found (tolerance 1.00e-04)
Best objective 1.180000000000e+03, best bound 1.180000000000e+03, gap 0.0000%
Warning: constraint name "precedence between 0,0 to 0,1 if x_[0,0,0,1,0]=0, i.e. 0,1 before 0,0" has a space
Warning: constraint name "precedence between 0,0 to 0,1 if x_[0,0,0,1,0]=0, i.e. 0,1 before 0,0" has a space
Warning: default constraint names used to write mps file
